nK = 2138;
nT = 8;
nI = 21;
L = 35;
TT = 460;
np = 1;
nc = 3;
b = [22, 59, 49, 58, 66, 55, 48, 32, 22, 40, 36, 27, 57, 65, 24, 43, 37, 31, 37, 67, 54];
d = [144, 127, 121, 127, 143, 147, 149, 74, 126, 96, 115, 84, 90, 136, 58, 139, 56, 138, 147, 138, 109];
m = [1.6, 1.3, 1.4, 1.1, 2.1, 2.4, 2.3, 1.8, 1.7, 1.7, 1.5, 1, 1.6, 2.2, 1.9, 2.3, 2, 2.5, 1.1, 2.2, 1.8];
pt = [0.22, 0.34, 0.28, 0.21, 0.25, 0.31, 0.3, 0.21];
st = [11.66, 17.68, 12.6, 10.92, 13.5, 16.43, 13.8, 12.39];
arc = {<1, 0, 1, 1, 0, 0, 0, [1, 1, 1, 1, 1, 1, 1, 1]>, <2, 1, 2, 1, 0, 0, 0, [1, 1, 1, 1, 1, 1, 1, 1]>, <3, 2, 3, 1, 0, 0, 0, [1, 1, 1, 1, 1, 1, 1, 1]>, <4, 3, 4, 1, 0, 0, 0, [1, 1, 1, 1, 1, 1, 1, 1]>, <5, 4, 5, 1, 0, 0, 0, [1, 1, 1, 1, 1, 1, 1, 1]>, <6, 5, 6, 1, 0, 0, 0, [1, 1, 1, 1, 1, 1, 1, 1]>, <7, 6, 7, 1, 0, 0, 0, [1, 1, 1, 1, 1, 1, 1, 1]>, <8, 7, 8, 1, 0, 0, 0, [1, 1, 1, 1, 1, 1, 1, 1]>, <9, 8, 9, 1, 0, 0, 0, [1, 1, 1, 1, 1, 1, 1, 1]>, <10, 9, 10, 1, 0, 0, 0, [1, 1, 1, 1, 1, 1, 1, 1]>, <11, 10, 11, 1, 0, 0, 0, [1, 1, 1, 1, 1, 1, 1, 1]>, <12, 11, 12, 1, 0, 0, 0, [1, 1, 1, 1, 1, 1, 1, 1]>, <13, 12, 13, 1, 0, 0, 0, [1, 1, 1, 1, 1, 1, 1, 1]>, <14, 13, 14, 1, 0, 0, 0, [1, 1, 1, 1, 1, 1, 1, 1]>, <15, 14, 15, 1, 0, 0, 0, [1, 1, 1, 1, 1, 1, 1, 1]>, <16, 15, 16, 1, 0, 0, 0, [1, 1, 1, 1, 1, 1, 1, 1]>, <17, 16, 17, 1, 0, 0, 0, [1, 1, 1, 1, 1, 1, 1, 1]>, <18, 17, 18, 1, 0, 0, 0, [1, 1, 1, 1, 1, 1, 1, 1]>, <19, 18, 19, 1, 0, 0, 0, [1, 1, 1, 1, 1, 1, 1, 1]>, <20, 19, 20, 1, 0, 0, 0, [1, 1, 1, 1, 1, 1, 1, 1]>, <21, 20, 21, 1, 0, 0, 0, [1, 1, 1, 1, 1, 1, 1, 1]>, <22, 21, 22, 1, 0, 0, 0, [1, 1, 1, 1, 1, 1, 1, 1]>, <23, 22, 23, 1, 0, 0, 0, [1, 1, 1, 1, 1, 1, 1, 1]>, <24, 23, 24, 1, 0, 0, 0, [1, 1, 1, 1, 1, 1, 1, 1]>, <25, 24, 25, 1, 0, 0, 0, [1, 1, 1, 1, 1, 1, 1, 1]>, <26, 25, 26, 1, 0, 0, 0, [1, 1, 1, 1, 1, 1, 1, 1]>, <27, 26, 27, 1, 0, 0, 0, [1, 1, 1, 1, 1, 1, 1, 1]>, <28, 27, 28, 1, 0, 0, 0, [1, 1, 1, 1, 1, 1, 1, 1]>, <29, 28, 29, 1, 0, 0, 0, [1, 1, 1, 1, 1, 1, 1, 1]>, <30, 29, 30, 1, 0, 0, 0, [1, 1, 1, 1, 1, 1, 1, 1]>, <31, 30, 31, 1, 0, 0, 0, [1, 1, 1, 1, 1, 1, 1, 1]>, <32, 31, 32, 1, 0, 0, 0, [1, 1, 1, 1, 1, 1, 1, 1]>, <33, 32, 33, 1, 0, 0, 0, [1, 1, 1, 1, 1, 1, 1, 1]>, <34, 33, 34, 1, 0, 0, 0, [1, 1, 1, 1, 1, 1, 1, 1]>, <35, 34, 35, 1, 0, 0, 0, [1, 1, 1, 1, 1, 1, 1, 1]>, <36, 1, 17, 16, 1, 0, 0, [1, 0, 0, 0, 0, 1, 1, 1]>, <37, 2, 18, 16, 1, 0, 0, [1, 0, 0, 0, 0, 1, 1, 1]>, <38, 3, 19, 16, 1, 0, 0, [1, 0, 0, 0, 0, 1, 1, 1]>, <39, 4, 20, 16, 1, 0, 0, [1, 0, 0, 0, 0, 1, 1, 1]>, <40, 5, 21, 16, 1, 0, 0, [1, 0, 0, 0, 0, 1, 1, 1]>, <41, 6, 22, 16, 1, 0, 0, [1, 0, 0, 0, 0, 1, 1, 1]>, <42, 10, 26, 16, 1, 0, 0, [1, 0, 0, 0, 0, 1, 1, 1]>, <43, 11, 27, 16, 1, 0, 0, [1, 0, 0, 0, 0, 1, 1, 1]>, <44, 12, 28, 16, 1, 0, 0, [1, 0, 0, 0, 0, 1, 1, 1]>, <45, 13, 29, 16, 1, 0, 0, [1, 0, 0, 0, 0, 1, 1, 1]>, <46, 14, 30, 16, 1, 0, 0, [1, 0, 0, 0, 0, 1, 1, 1]>, <47, 15, 31, 16, 1, 0, 0, [1, 0, 0, 0, 0, 1, 1, 1]>, <48, 16, 32, 16, 1, 0, 0, [1, 0, 0, 0, 0, 1, 1, 1]>, <49, 17, 33, 16, 1, 0, 0, [1, 0, 0, 0, 0, 1, 1, 1]>, <50, 18, 34, 16, 1, 0, 0, [1, 0, 0, 0, 0, 1, 1, 1]>, <51, 19, 35, 16, 1, 0, 0, [1, 0, 0, 0, 0, 1, 1, 1]>, <52, 4, 17, 13, 2, 0, 0, [0, 0, 0, 0, 1, 1, 1, 1]>, <53, 5, 18, 13, 2, 0, 0, [0, 0, 0, 0, 1, 1, 1, 1]>, <54, 6, 19, 13, 2, 0, 0, [0, 0, 0, 0, 1, 1, 1, 1]>, <55, 13, 26, 13, 2, 0, 0, [0, 0, 0, 0, 1, 1, 1, 1]>, <56, 14, 27, 13, 2, 0, 0, [0, 0, 0, 0, 1, 1, 1, 1]>, <57, 15, 28, 13, 2, 0, 0, [0, 0, 0, 0, 1, 1, 1, 1]>, <58, 18, 31, 13, 2, 0, 0, [0, 0, 0, 0, 1, 1, 1, 1]>, <59, 19, 32, 13, 2, 0, 0, [0, 0, 0, 0, 1, 1, 1, 1]>, <60, 20, 33, 13, 2, 0, 0, [0, 0, 0, 0, 1, 1, 1, 1]>, <61, 21, 34, 13, 2, 0, 0, [0, 0, 0, 0, 1, 1, 1, 1]>, <62, 22, 35, 13, 2, 0, 0, [0, 0, 0, 0, 1, 1, 1, 1]>, <63, 0, 18, 18, 3, 0, 1, [1, 1, 1, 0, 0, 0, 0, 1]>, <64, 1, 19, 18, 3, 0, 1, [1, 1, 1, 0, 0, 0, 0, 1]>, <65, 2, 20, 18, 3, 0, 1, [1, 1, 1, 0, 0, 0, 0, 1]>, <66, 3, 21, 18, 3, 0, 1, [1, 1, 1, 0, 0, 0, 0, 1]>, <67, 4, 22, 18, 3, 0, 1, [1, 1, 1, 0, 0, 0, 0, 1]>, <68, 5, 23, 18, 3, 0, 1, [1, 1, 1, 0, 0, 0, 0, 1]>, <69, 6, 24, 18, 3, 0, 1, [1, 1, 1, 0, 0, 0, 0, 1]>, <70, 8, 26, 18, 3, 0, 1, [1, 1, 1, 0, 0, 0, 0, 1]>, <71, 9, 27, 18, 3, 0, 1, [1, 1, 1, 0, 0, 0, 0, 1]>, <72, 10, 28, 18, 3, 0, 1, [1, 1, 1, 0, 0, 0, 0, 1]>, <73, 11, 29, 18, 3, 0, 1, [1, 1, 1, 0, 0, 0, 0, 1]>, <74, 12, 30, 18, 3, 0, 1, [1, 1, 1, 0, 0, 0, 0, 1]>, <75, 13, 31, 18, 3, 0, 1, [1, 1, 1, 0, 0, 0, 0, 1]>, <76, 14, 32, 18, 3, 0, 1, [1, 1, 1, 0, 0, 0, 0, 1]>, <77, 15, 33, 18, 3, 0, 1, [1, 1, 1, 0, 0, 0, 0, 1]>, <78, 16, 34, 18, 3, 0, 1, [1, 1, 1, 0, 0, 0, 0, 1]>, <79, 17, 35, 18, 3, 0, 1, [1, 1, 1, 0, 0, 0, 0, 1]>, <80, 3, 17, 14, 4, 0, 1, [0, 1, 1, 1, 1, 0, 0, 0]>, <81, 4, 18, 14, 4, 0, 1, [0, 1, 1, 1, 1, 0, 0, 0]>, <82, 5, 19, 14, 4, 0, 1, [0, 1, 1, 1, 1, 0, 0, 0]>, <83, 6, 20, 14, 4, 0, 1, [0, 1, 1, 1, 1, 0, 0, 0]>, <84, 12, 26, 14, 4, 0, 1, [0, 1, 1, 1, 1, 0, 0, 0]>, <85, 13, 27, 14, 4, 0, 1, [0, 1, 1, 1, 1, 0, 0, 0]>, <86, 14, 28, 14, 4, 0, 1, [0, 1, 1, 1, 1, 0, 0, 0]>, <87, 15, 29, 14, 4, 0, 1, [0, 1, 1, 1, 1, 0, 0, 0]>, <88, 17, 31, 14, 4, 0, 1, [0, 1, 1, 1, 1, 0, 0, 0]>, <89, 18, 32, 14, 4, 0, 1, [0, 1, 1, 1, 1, 0, 0, 0]>, <90, 19, 33, 14, 4, 0, 1, [0, 1, 1, 1, 1, 0, 0, 0]>, <91, 20, 34, 14, 4, 0, 1, [0, 1, 1, 1, 1, 0, 0, 0]>, <92, 21, 35, 14, 4, 0, 1, [0, 1, 1, 1, 1, 0, 0, 0]>, <93, 2, 17, 15, 5, 1, 0, [0, 0, 1, 1, 1, 1, 0, 0]>, <94, 3, 18, 15, 5, 1, 0, [0, 0, 1, 1, 1, 1, 0, 0]>, <95, 4, 19, 15, 5, 1, 0, [0, 0, 1, 1, 1, 1, 0, 0]>, <96, 5, 20, 15, 5, 1, 0, [0, 0, 1, 1, 1, 1, 0, 0]>, <97, 6, 21, 15, 5, 1, 0, [0, 0, 1, 1, 1, 1, 0, 0]>, <98, 11, 26, 15, 5, 1, 0, [0, 0, 1, 1, 1, 1, 0, 0]>, <99, 12, 27, 15, 5, 1, 0, [0, 0, 1, 1, 1, 1, 0, 0]>, <100, 13, 28, 15, 5, 1, 0, [0, 0, 1, 1, 1, 1, 0, 0]>, <101, 14, 29, 15, 5, 1, 0, [0, 0, 1, 1, 1, 1, 0, 0]>, <102, 15, 30, 15, 5, 1, 0, [0, 0, 1, 1, 1, 1, 0, 0]>, <103, 16, 31, 15, 5, 1, 0, [0, 0, 1, 1, 1, 1, 0, 0]>, <104, 17, 32, 15, 5, 1, 0, [0, 0, 1, 1, 1, 1, 0, 0]>, <105, 18, 33, 15, 5, 1, 0, [0, 0, 1, 1, 1, 1, 0, 0]>, <106, 19, 34, 15, 5, 1, 0, [0, 0, 1, 1, 1, 1, 0, 0]>, <107, 20, 35, 15, 5, 1, 0, [0, 0, 1, 1, 1, 1, 0, 0]>, <108, 4, 17, 13, 6, 0, 0, [1, 0, 0, 0, 0, 1, 1, 1]>, <109, 5, 18, 13, 6, 0, 0, [1, 0, 0, 0, 0, 1, 1, 1]>, <110, 6, 19, 13, 6, 0, 0, [1, 0, 0, 0, 0, 1, 1, 1]>, <111, 13, 26, 13, 6, 0, 0, [1, 0, 0, 0, 0, 1, 1, 1]>, <112, 14, 27, 13, 6, 0, 0, [1, 0, 0, 0, 0, 1, 1, 1]>, <113, 15, 28, 13, 6, 0, 0, [1, 0, 0, 0, 0, 1, 1, 1]>, <114, 18, 31, 13, 6, 0, 0, [1, 0, 0, 0, 0, 1, 1, 1]>, <115, 19, 32, 13, 6, 0, 0, [1, 0, 0, 0, 0, 1, 1, 1]>, <116, 20, 33, 13, 6, 0, 0, [1, 0, 0, 0, 0, 1, 1, 1]>, <117, 21, 34, 13, 6, 0, 0, [1, 0, 0, 0, 0, 1, 1, 1]>, <118, 22, 35, 13, 6, 0, 0, [1, 0, 0, 0, 0, 1, 1, 1]>, <119, 2, 17, 15, 7, 0, 1, [1, 0, 0, 0, 0, 1, 1, 1]>, <120, 3, 18, 15, 7, 0, 1, [1, 0, 0, 0, 0, 1, 1, 1]>, <121, 4, 19, 15, 7, 0, 1, [1, 0, 0, 0, 0, 1, 1, 1]>, <122, 5, 20, 15, 7, 0, 1, [1, 0, 0, 0, 0, 1, 1, 1]>, <123, 6, 21, 15, 7, 0, 1, [1, 0, 0, 0, 0, 1, 1, 1]>, <124, 11, 26, 15, 7, 0, 1, [1, 0, 0, 0, 0, 1, 1, 1]>, <125, 12, 27, 15, 7, 0, 1, [1, 0, 0, 0, 0, 1, 1, 1]>, <126, 13, 28, 15, 7, 0, 1, [1, 0, 0, 0, 0, 1, 1, 1]>, <127, 14, 29, 15, 7, 0, 1, [1, 0, 0, 0, 0, 1, 1, 1]>, <128, 15, 30, 15, 7, 0, 1, [1, 0, 0, 0, 0, 1, 1, 1]>, <129, 16, 31, 15, 7, 0, 1, [1, 0, 0, 0, 0, 1, 1, 1]>, <130, 17, 32, 15, 7, 0, 1, [1, 0, 0, 0, 0, 1, 1, 1]>, <131, 18, 33, 15, 7, 0, 1, [1, 0, 0, 0, 0, 1, 1, 1]>, <132, 19, 34, 15, 7, 0, 1, [1, 0, 0, 0, 0, 1, 1, 1]>, <133, 20, 35, 15, 7, 0, 1, [1, 0, 0, 0, 0, 1, 1, 1]>, <134, 3, 17, 14, 8, 0, 0, [1, 1, 1, 0, 0, 0, 0, 1]>, <135, 4, 18, 14, 8, 0, 0, [1, 1, 1, 0, 0, 0, 0, 1]>, <136, 5, 19, 14, 8, 0, 0, [1, 1, 1, 0, 0, 0, 0, 1]>, <137, 6, 20, 14, 8, 0, 0, [1, 1, 1, 0, 0, 0, 0, 1]>, <138, 12, 26, 14, 8, 0, 0, [1, 1, 1, 0, 0, 0, 0, 1]>, <139, 13, 27, 14, 8, 0, 0, [1, 1, 1, 0, 0, 0, 0, 1]>, <140, 14, 28, 14, 8, 0, 0, [1, 1, 1, 0, 0, 0, 0, 1]>, <141, 15, 29, 14, 8, 0, 0, [1, 1, 1, 0, 0, 0, 0, 1]>, <142, 17, 31, 14, 8, 0, 0, [1, 1, 1, 0, 0, 0, 0, 1]>, <143, 18, 32, 14, 8, 0, 0, [1, 1, 1, 0, 0, 0, 0, 1]>, <144, 19, 33, 14, 8, 0, 0, [1, 1, 1, 0, 0, 0, 0, 1]>, <145, 20, 34, 14, 8, 0, 0, [1, 1, 1, 0, 0, 0, 0, 1]>, <146, 21, 35, 14, 8, 0, 0, [1, 1, 1, 0, 0, 0, 0, 1]>, <147, 0, 17, 17, 9, 1, 0, [1, 0, 0, 0, 0, 1, 1, 1]>, <148, 1, 18, 17, 9, 1, 0, [1, 0, 0, 0, 0, 1, 1, 1]>, <149, 2, 19, 17, 9, 1, 0, [1, 0, 0, 0, 0, 1, 1, 1]>, <150, 3, 20, 17, 9, 1, 0, [1, 0, 0, 0, 0, 1, 1, 1]>, <151, 4, 21, 17, 9, 1, 0, [1, 0, 0, 0, 0, 1, 1, 1]>, <152, 5, 22, 17, 9, 1, 0, [1, 0, 0, 0, 0, 1, 1, 1]>, <153, 6, 23, 17, 9, 1, 0, [1, 0, 0, 0, 0, 1, 1, 1]>, <154, 9, 26, 17, 9, 1, 0, [1, 0, 0, 0, 0, 1, 1, 1]>, <155, 10, 27, 17, 9, 1, 0, [1, 0, 0, 0, 0, 1, 1, 1]>, <156, 11, 28, 17, 9, 1, 0, [1, 0, 0, 0, 0, 1, 1, 1]>, <157, 12, 29, 17, 9, 1, 0, [1, 0, 0, 0, 0, 1, 1, 1]>, <158, 13, 30, 17, 9, 1, 0, [1, 0, 0, 0, 0, 1, 1, 1]>, <159, 14, 31, 17, 9, 1, 0, [1, 0, 0, 0, 0, 1, 1, 1]>, <160, 15, 32, 17, 9, 1, 0, [1, 0, 0, 0, 0, 1, 1, 1]>, <161, 16, 33, 17, 9, 1, 0, [1, 0, 0, 0, 0, 1, 1, 1]>, <162, 17, 34, 17, 9, 1, 0, [1, 0, 0, 0, 0, 1, 1, 1]>, <163, 18, 35, 17, 9, 1, 0, [1, 0, 0, 0, 0, 1, 1, 1]>, <164, 3, 17, 14, 10, 0, 1, [1, 1, 1, 0, 0, 0, 0, 1]>, <165, 4, 18, 14, 10, 0, 1, [1, 1, 1, 0, 0, 0, 0, 1]>, <166, 5, 19, 14, 10, 0, 1, [1, 1, 1, 0, 0, 0, 0, 1]>, <167, 6, 20, 14, 10, 0, 1, [1, 1, 1, 0, 0, 0, 0, 1]>, <168, 12, 26, 14, 10, 0, 1, [1, 1, 1, 0, 0, 0, 0, 1]>, <169, 13, 27, 14, 10, 0, 1, [1, 1, 1, 0, 0, 0, 0, 1]>, <170, 14, 28, 14, 10, 0, 1, [1, 1, 1, 0, 0, 0, 0, 1]>, <171, 15, 29, 14, 10, 0, 1, [1, 1, 1, 0, 0, 0, 0, 1]>, <172, 17, 31, 14, 10, 0, 1, [1, 1, 1, 0, 0, 0, 0, 1]>, <173, 18, 32, 14, 10, 0, 1, [1, 1, 1, 0, 0, 0, 0, 1]>, <174, 19, 33, 14, 10, 0, 1, [1, 1, 1, 0, 0, 0, 0, 1]>, <175, 20, 34, 14, 10, 0, 1, [1, 1, 1, 0, 0, 0, 0, 1]>, <176, 21, 35, 14, 10, 0, 1, [1, 1, 1, 0, 0, 0, 0, 1]>, <177, 0, 18, 18, 11, 0, 1, [0, 1, 1, 1, 1, 0, 0, 0]>, <178, 1, 19, 18, 11, 0, 1, [0, 1, 1, 1, 1, 0, 0, 0]>, <179, 2, 20, 18, 11, 0, 1, [0, 1, 1, 1, 1, 0, 0, 0]>, <180, 3, 21, 18, 11, 0, 1, [0, 1, 1, 1, 1, 0, 0, 0]>, <181, 4, 22, 18, 11, 0, 1, [0, 1, 1, 1, 1, 0, 0, 0]>, <182, 5, 23, 18, 11, 0, 1, [0, 1, 1, 1, 1, 0, 0, 0]>, <183, 6, 24, 18, 11, 0, 1, [0, 1, 1, 1, 1, 0, 0, 0]>, <184, 8, 26, 18, 11, 0, 1, [0, 1, 1, 1, 1, 0, 0, 0]>, <185, 9, 27, 18, 11, 0, 1, [0, 1, 1, 1, 1, 0, 0, 0]>, <186, 10, 28, 18, 11, 0, 1, [0, 1, 1, 1, 1, 0, 0, 0]>, <187, 11, 29, 18, 11, 0, 1, [0, 1, 1, 1, 1, 0, 0, 0]>, <188, 12, 30, 18, 11, 0, 1, [0, 1, 1, 1, 1, 0, 0, 0]>, <189, 13, 31, 18, 11, 0, 1, [0, 1, 1, 1, 1, 0, 0, 0]>, <190, 14, 32, 18, 11, 0, 1, [0, 1, 1, 1, 1, 0, 0, 0]>, <191, 15, 33, 18, 11, 0, 1, [0, 1, 1, 1, 1, 0, 0, 0]>, <192, 16, 34, 18, 11, 0, 1, [0, 1, 1, 1, 1, 0, 0, 0]>, <193, 17, 35, 18, 11, 0, 1, [0, 1, 1, 1, 1, 0, 0, 0]>, <194, 0, 18, 18, 12, 0, 0, [1, 1, 0, 0, 0, 0, 1, 1]>, <195, 1, 19, 18, 12, 0, 0, [1, 1, 0, 0, 0, 0, 1, 1]>, <196, 2, 20, 18, 12, 0, 0, [1, 1, 0, 0, 0, 0, 1, 1]>, <197, 3, 21, 18, 12, 0, 0, [1, 1, 0, 0, 0, 0, 1, 1]>, <198, 4, 22, 18, 12, 0, 0, [1, 1, 0, 0, 0, 0, 1, 1]>, <199, 5, 23, 18, 12, 0, 0, [1, 1, 0, 0, 0, 0, 1, 1]>, <200, 6, 24, 18, 12, 0, 0, [1, 1, 0, 0, 0, 0, 1, 1]>, <201, 8, 26, 18, 12, 0, 0, [1, 1, 0, 0, 0, 0, 1, 1]>, <202, 9, 27, 18, 12, 0, 0, [1, 1, 0, 0, 0, 0, 1, 1]>, <203, 10, 28, 18, 12, 0, 0, [1, 1, 0, 0, 0, 0, 1, 1]>, <204, 11, 29, 18, 12, 0, 0, [1, 1, 0, 0, 0, 0, 1, 1]>, <205, 12, 30, 18, 12, 0, 0, [1, 1, 0, 0, 0, 0, 1, 1]>, <206, 13, 31, 18, 12, 0, 0, [1, 1, 0, 0, 0, 0, 1, 1]>, <207, 14, 32, 18, 12, 0, 0, [1, 1, 0, 0, 0, 0, 1, 1]>, <208, 15, 33, 18, 12, 0, 0, [1, 1, 0, 0, 0, 0, 1, 1]>, <209, 16, 34, 18, 12, 0, 0, [1, 1, 0, 0, 0, 0, 1, 1]>, <210, 17, 35, 18, 12, 0, 0, [1, 1, 0, 0, 0, 0, 1, 1]>, <211, 0, 17, 17, 13, 1, 0, [1, 0, 0, 0, 0, 1, 1, 1]>, <212, 1, 18, 17, 13, 1, 0, [1, 0, 0, 0, 0, 1, 1, 1]>, <213, 2, 19, 17, 13, 1, 0, [1, 0, 0, 0, 0, 1, 1, 1]>, <214, 3, 20, 17, 13, 1, 0, [1, 0, 0, 0, 0, 1, 1, 1]>, <215, 4, 21, 17, 13, 1, 0, [1, 0, 0, 0, 0, 1, 1, 1]>, <216, 5, 22, 17, 13, 1, 0, [1, 0, 0, 0, 0, 1, 1, 1]>, <217, 6, 23, 17, 13, 1, 0, [1, 0, 0, 0, 0, 1, 1, 1]>, <218, 9, 26, 17, 13, 1, 0, [1, 0, 0, 0, 0, 1, 1, 1]>, <219, 10, 27, 17, 13, 1, 0, [1, 0, 0, 0, 0, 1, 1, 1]>, <220, 11, 28, 17, 13, 1, 0, [1, 0, 0, 0, 0, 1, 1, 1]>, <221, 12, 29, 17, 13, 1, 0, [1, 0, 0, 0, 0, 1, 1, 1]>, <222, 13, 30, 17, 13, 1, 0, [1, 0, 0, 0, 0, 1, 1, 1]>, <223, 14, 31, 17, 13, 1, 0, [1, 0, 0, 0, 0, 1, 1, 1]>, <224, 15, 32, 17, 13, 1, 0, [1, 0, 0, 0, 0, 1, 1, 1]>, <225, 16, 33, 17, 13, 1, 0, [1, 0, 0, 0, 0, 1, 1, 1]>, <226, 17, 34, 17, 13, 1, 0, [1, 0, 0, 0, 0, 1, 1, 1]>, <227, 18, 35, 17, 13, 1, 0, [1, 0, 0, 0, 0, 1, 1, 1]>, <228, 1, 17, 16, 14, 0, 1, [0, 1, 1, 1, 1, 0, 0, 0]>, <229, 2, 18, 16, 14, 0, 1, [0, 1, 1, 1, 1, 0, 0, 0]>, <230, 3, 19, 16, 14, 0, 1, [0, 1, 1, 1, 1, 0, 0, 0]>, <231, 4, 20, 16, 14, 0, 1, [0, 1, 1, 1, 1, 0, 0, 0]>, <232, 5, 21, 16, 14, 0, 1, [0, 1, 1, 1, 1, 0, 0, 0]>, <233, 6, 22, 16, 14, 0, 1, [0, 1, 1, 1, 1, 0, 0, 0]>, <234, 10, 26, 16, 14, 0, 1, [0, 1, 1, 1, 1, 0, 0, 0]>, <235, 11, 27, 16, 14, 0, 1, [0, 1, 1, 1, 1, 0, 0, 0]>, <236, 12, 28, 16, 14, 0, 1, [0, 1, 1, 1, 1, 0, 0, 0]>, <237, 13, 29, 16, 14, 0, 1, [0, 1, 1, 1, 1, 0, 0, 0]>, <238, 14, 30, 16, 14, 0, 1, [0, 1, 1, 1, 1, 0, 0, 0]>, <239, 15, 31, 16, 14, 0, 1, [0, 1, 1, 1, 1, 0, 0, 0]>, <240, 16, 32, 16, 14, 0, 1, [0, 1, 1, 1, 1, 0, 0, 0]>, <241, 17, 33, 16, 14, 0, 1, [0, 1, 1, 1, 1, 0, 0, 0]>, <242, 18, 34, 16, 14, 0, 1, [0, 1, 1, 1, 1, 0, 0, 0]>, <243, 19, 35, 16, 14, 0, 1, [0, 1, 1, 1, 1, 0, 0, 0]>, <244, 2, 17, 15, 15, 0, 0, [0, 1, 1, 1, 1, 0, 0, 0]>, <245, 3, 18, 15, 15, 0, 0, [0, 1, 1, 1, 1, 0, 0, 0]>, <246, 4, 19, 15, 15, 0, 0, [0, 1, 1, 1, 1, 0, 0, 0]>, <247, 5, 20, 15, 15, 0, 0, [0, 1, 1, 1, 1, 0, 0, 0]>, <248, 6, 21, 15, 15, 0, 0, [0, 1, 1, 1, 1, 0, 0, 0]>, <249, 11, 26, 15, 15, 0, 0, [0, 1, 1, 1, 1, 0, 0, 0]>, <250, 12, 27, 15, 15, 0, 0, [0, 1, 1, 1, 1, 0, 0, 0]>, <251, 13, 28, 15, 15, 0, 0, [0, 1, 1, 1, 1, 0, 0, 0]>, <252, 14, 29, 15, 15, 0, 0, [0, 1, 1, 1, 1, 0, 0, 0]>, <253, 15, 30, 15, 15, 0, 0, [0, 1, 1, 1, 1, 0, 0, 0]>, <254, 16, 31, 15, 15, 0, 0, [0, 1, 1, 1, 1, 0, 0, 0]>, <255, 17, 32, 15, 15, 0, 0, [0, 1, 1, 1, 1, 0, 0, 0]>, <256, 18, 33, 15, 15, 0, 0, [0, 1, 1, 1, 1, 0, 0, 0]>, <257, 19, 34, 15, 15, 0, 0, [0, 1, 1, 1, 1, 0, 0, 0]>, <258, 20, 35, 15, 15, 0, 0, [0, 1, 1, 1, 1, 0, 0, 0]>, <259, 4, 17, 13, 16, 1, 0, [0, 0, 0, 0, 1, 1, 1, 1]>, <260, 5, 18, 13, 16, 1, 0, [0, 0, 0, 0, 1, 1, 1, 1]>, <261, 6, 19, 13, 16, 1, 0, [0, 0, 0, 0, 1, 1, 1, 1]>, <262, 13, 26, 13, 16, 1, 0, [0, 0, 0, 0, 1, 1, 1, 1]>, <263, 14, 27, 13, 16, 1, 0, [0, 0, 0, 0, 1, 1, 1, 1]>, <264, 15, 28, 13, 16, 1, 0, [0, 0, 0, 0, 1, 1, 1, 1]>, <265, 18, 31, 13, 16, 1, 0, [0, 0, 0, 0, 1, 1, 1, 1]>, <266, 19, 32, 13, 16, 1, 0, [0, 0, 0, 0, 1, 1, 1, 1]>, <267, 20, 33, 13, 16, 1, 0, [0, 0, 0, 0, 1, 1, 1, 1]>, <268, 21, 34, 13, 16, 1, 0, [0, 0, 0, 0, 1, 1, 1, 1]>, <269, 22, 35, 13, 16, 1, 0, [0, 0, 0, 0, 1, 1, 1, 1]>, <270, 0, 17, 17, 17, 0, 0, [1, 1, 1, 1, 0, 0, 0, 0]>, <271, 1, 18, 17, 17, 0, 0, [1, 1, 1, 1, 0, 0, 0, 0]>, <272, 2, 19, 17, 17, 0, 0, [1, 1, 1, 1, 0, 0, 0, 0]>, <273, 3, 20, 17, 17, 0, 0, [1, 1, 1, 1, 0, 0, 0, 0]>, <274, 4, 21, 17, 17, 0, 0, [1, 1, 1, 1, 0, 0, 0, 0]>, <275, 5, 22, 17, 17, 0, 0, [1, 1, 1, 1, 0, 0, 0, 0]>, <276, 6, 23, 17, 17, 0, 0, [1, 1, 1, 1, 0, 0, 0, 0]>, <277, 9, 26, 17, 17, 0, 0, [1, 1, 1, 1, 0, 0, 0, 0]>, <278, 10, 27, 17, 17, 0, 0, [1, 1, 1, 1, 0, 0, 0, 0]>, <279, 11, 28, 17, 17, 0, 0, [1, 1, 1, 1, 0, 0, 0, 0]>, <280, 12, 29, 17, 17, 0, 0, [1, 1, 1, 1, 0, 0, 0, 0]>, <281, 13, 30, 17, 17, 0, 0, [1, 1, 1, 1, 0, 0, 0, 0]>, <282, 14, 31, 17, 17, 0, 0, [1, 1, 1, 1, 0, 0, 0, 0]>, <283, 15, 32, 17, 17, 0, 0, [1, 1, 1, 1, 0, 0, 0, 0]>, <284, 16, 33, 17, 17, 0, 0, [1, 1, 1, 1, 0, 0, 0, 0]>, <285, 17, 34, 17, 17, 0, 0, [1, 1, 1, 1, 0, 0, 0, 0]>, <286, 18, 35, 17, 17, 0, 0, [1, 1, 1, 1, 0, 0, 0, 0]>, <287, 1, 17, 16, 18, 0, 0, [1, 1, 1, 1, 0, 0, 0, 0]>, <288, 2, 18, 16, 18, 0, 0, [1, 1, 1, 1, 0, 0, 0, 0]>, <289, 3, 19, 16, 18, 0, 0, [1, 1, 1, 1, 0, 0, 0, 0]>, <290, 4, 20, 16, 18, 0, 0, [1, 1, 1, 1, 0, 0, 0, 0]>, <291, 5, 21, 16, 18, 0, 0, [1, 1, 1, 1, 0, 0, 0, 0]>, <292, 6, 22, 16, 18, 0, 0, [1, 1, 1, 1, 0, 0, 0, 0]>, <293, 10, 26, 16, 18, 0, 0, [1, 1, 1, 1, 0, 0, 0, 0]>, <294, 11, 27, 16, 18, 0, 0, [1, 1, 1, 1, 0, 0, 0, 0]>, <295, 12, 28, 16, 18, 0, 0, [1, 1, 1, 1, 0, 0, 0, 0]>, <296, 13, 29, 16, 18, 0, 0, [1, 1, 1, 1, 0, 0, 0, 0]>, <297, 14, 30, 16, 18, 0, 0, [1, 1, 1, 1, 0, 0, 0, 0]>, <298, 15, 31, 16, 18, 0, 0, [1, 1, 1, 1, 0, 0, 0, 0]>, <299, 16, 32, 16, 18, 0, 0, [1, 1, 1, 1, 0, 0, 0, 0]>, <300, 17, 33, 16, 18, 0, 0, [1, 1, 1, 1, 0, 0, 0, 0]>, <301, 18, 34, 16, 18, 0, 0, [1, 1, 1, 1, 0, 0, 0, 0]>, <302, 19, 35, 16, 18, 0, 0, [1, 1, 1, 1, 0, 0, 0, 0]>, <303, 0, 18, 18, 19, 0, 1, [1, 1, 1, 0, 0, 0, 0, 1]>, <304, 1, 19, 18, 19, 0, 1, [1, 1, 1, 0, 0, 0, 0, 1]>, <305, 2, 20, 18, 19, 0, 1, [1, 1, 1, 0, 0, 0, 0, 1]>, <306, 3, 21, 18, 19, 0, 1, [1, 1, 1, 0, 0, 0, 0, 1]>, <307, 4, 22, 18, 19, 0, 1, [1, 1, 1, 0, 0, 0, 0, 1]>, <308, 5, 23, 18, 19, 0, 1, [1, 1, 1, 0, 0, 0, 0, 1]>, <309, 6, 24, 18, 19, 0, 1, [1, 1, 1, 0, 0, 0, 0, 1]>, <310, 8, 26, 18, 19, 0, 1, [1, 1, 1, 0, 0, 0, 0, 1]>, <311, 9, 27, 18, 19, 0, 1, [1, 1, 1, 0, 0, 0, 0, 1]>, <312, 10, 28, 18, 19, 0, 1, [1, 1, 1, 0, 0, 0, 0, 1]>, <313, 11, 29, 18, 19, 0, 1, [1, 1, 1, 0, 0, 0, 0, 1]>, <314, 12, 30, 18, 19, 0, 1, [1, 1, 1, 0, 0, 0, 0, 1]>, <315, 13, 31, 18, 19, 0, 1, [1, 1, 1, 0, 0, 0, 0, 1]>, <316, 14, 32, 18, 19, 0, 1, [1, 1, 1, 0, 0, 0, 0, 1]>, <317, 15, 33, 18, 19, 0, 1, [1, 1, 1, 0, 0, 0, 0, 1]>, <318, 16, 34, 18, 19, 0, 1, [1, 1, 1, 0, 0, 0, 0, 1]>, <319, 17, 35, 18, 19, 0, 1, [1, 1, 1, 0, 0, 0, 0, 1]>, <320, 0, 17, 17, 20, 0, 0, [0, 0, 1, 1, 1, 1, 0, 0]>, <321, 1, 18, 17, 20, 0, 0, [0, 0, 1, 1, 1, 1, 0, 0]>, <322, 2, 19, 17, 20, 0, 0, [0, 0, 1, 1, 1, 1, 0, 0]>, <323, 3, 20, 17, 20, 0, 0, [0, 0, 1, 1, 1, 1, 0, 0]>, <324, 4, 21, 17, 20, 0, 0, [0, 0, 1, 1, 1, 1, 0, 0]>, <325, 5, 22, 17, 20, 0, 0, [0, 0, 1, 1, 1, 1, 0, 0]>, <326, 6, 23, 17, 20, 0, 0, [0, 0, 1, 1, 1, 1, 0, 0]>, <327, 9, 26, 17, 20, 0, 0, [0, 0, 1, 1, 1, 1, 0, 0]>, <328, 10, 27, 17, 20, 0, 0, [0, 0, 1, 1, 1, 1, 0, 0]>, <329, 11, 28, 17, 20, 0, 0, [0, 0, 1, 1, 1, 1, 0, 0]>, <330, 12, 29, 17, 20, 0, 0, [0, 0, 1, 1, 1, 1, 0, 0]>, <331, 13, 30, 17, 20, 0, 0, [0, 0, 1, 1, 1, 1, 0, 0]>, <332, 14, 31, 17, 20, 0, 0, [0, 0, 1, 1, 1, 1, 0, 0]>, <333, 15, 32, 17, 20, 0, 0, [0, 0, 1, 1, 1, 1, 0, 0]>, <334, 16, 33, 17, 20, 0, 0, [0, 0, 1, 1, 1, 1, 0, 0]>, <335, 17, 34, 17, 20, 0, 0, [0, 0, 1, 1, 1, 1, 0, 0]>, <336, 18, 35, 17, 20, 0, 0, [0, 0, 1, 1, 1, 1, 0, 0]>, <337, 0, 17, 17, 21, 0, 0, [0, 1, 1, 1, 1, 0, 0, 0]>, <338, 1, 18, 17, 21, 0, 0, [0, 1, 1, 1, 1, 0, 0, 0]>, <339, 2, 19, 17, 21, 0, 0, [0, 1, 1, 1, 1, 0, 0, 0]>, <340, 3, 20, 17, 21, 0, 0, [0, 1, 1, 1, 1, 0, 0, 0]>, <341, 4, 21, 17, 21, 0, 0, [0, 1, 1, 1, 1, 0, 0, 0]>, <342, 5, 22, 17, 21, 0, 0, [0, 1, 1, 1, 1, 0, 0, 0]>, <343, 6, 23, 17, 21, 0, 0, [0, 1, 1, 1, 1, 0, 0, 0]>, <344, 9, 26, 17, 21, 0, 0, [0, 1, 1, 1, 1, 0, 0, 0]>, <345, 10, 27, 17, 21, 0, 0, [0, 1, 1, 1, 1, 0, 0, 0]>, <346, 11, 28, 17, 21, 0, 0, [0, 1, 1, 1, 1, 0, 0, 0]>, <347, 12, 29, 17, 21, 0, 0, [0, 1, 1, 1, 1, 0, 0, 0]>, <348, 13, 30, 17, 21, 0, 0, [0, 1, 1, 1, 1, 0, 0, 0]>, <349, 14, 31, 17, 21, 0, 0, [0, 1, 1, 1, 1, 0, 0, 0]>, <350, 15, 32, 17, 21, 0, 0, [0, 1, 1, 1, 1, 0, 0, 0]>, <351, 16, 33, 17, 21, 0, 0, [0, 1, 1, 1, 1, 0, 0, 0]>, <352, 17, 34, 17, 21, 0, 0, [0, 1, 1, 1, 1, 0, 0, 0]>, <353, 18, 35, 17, 21, 0, 0, [0, 1, 1, 1, 1, 0, 0, 0]>};
